/* Objective function */
min: - 0.0054fpdi - 0.0054fpdo + 0.05apdi + 0.05apdo + 0.0002pi + 0.0002po - 0.5fsi - 0.5fso;

apdi = 0.0 hi + 0.0 li + 12.28386 ri + -0.03175 ci + -1.91045 si + 0.0 ti + 0.09043 fTempIi + 0.03047 ami + -141.46852;
asi = 0.0 hi + 0.0 li + 0.00535 ri + -0.00024 ci + -0.00116 si + 0.0 ti + -0.00014 fTempIi + 0.0003 ami + -0.0024;
aTempOi = 0.0 hi + 0.0 li + 0.30363 ri + -0.2091 ci + -0.03874 si + -0.0 ti + 0.73767 fTempIi + -0.00099 ami + 7.25573;
fpdi = 0.0 hi + 0.0 li + 1.88938 ri + -5.7231 ci + 0.01182 si + -0.0 ti + -0.11746 fTempIi + 7e-05 ami + 55.34969;
fsi = 0.0 hi + -0.0 li + -0.00014 ri + -0.05681 ci + 2e-05 si + -0.0 ti + 0.00065 fTempIi + -0.0 ami + 1.03559;
fTempOi = 0.0 hi + -0.0 li + -0.30835 ri + 0.21698 ci + 0.03912 si + 0.0 ti + 0.26426 fTempIi + -0.0007 ami + 8.54645;
pi = 0.0 hi + 0.0 li + 95.52275 ri + 3.53333 ci + -7.98753 si + 0.0 ti + -0.01043 fTempIi + -1e-05 ami + 297.83088;

apdo = 0.0 ho + 0.0 lo + 11.65397 ro + 0.0119 co + -1.2485 so + -0.0 to + 0.0302 fTempIo + 0.02191 amo + -98.87436;
aso = 0.0 ho + -0.0 lo + -0.00024 ro + -0.00024 co + -4e-05 so + 0.0 to + -0.0002 fTempIo + 0.0003 amo + 0.01835;
aTempOo = 0.0 ho + -0.0 lo + -0.56525 ro + 0.27831 co + 0.04953 so + 0.0 to + 0.55842 fTempIo + 0.00094 amo + 3.78739;
fpdo = 0.0 ho + 0.0 lo + 1.54151 ro + -2.92155 co + 0.00269 so + -0.0 to + -0.07803 fTempIo + -4e-05 amo + 32.15443;
fso = 0.0 ho + -0.0 lo + 0.0001 ro + -0.04825 co + -1e-05 so + 0.0 to + 0.0002 fTempIo + 0.0 amo + 0.96584;
fTempOo = 0.0 ho + 0.0 lo + 0.56817 ro + -0.28579 co + -0.04979 so + -0.0 to + 0.43343 fTempIo + 0.00063 amo + 11.33621;
po = 0.0 ho + 0.0 lo + 81.76667 ro + 3.5 co + -4.27429 so + -0.0 to + 0.0 fTempIo + 0.0 amo + 228.81905;

/* Variable bounds */
aTempOi > 18.6;
1 =r6i + r8i + r10i + r12i + r14i;
ri =6r6i + 8r8i + 10r10i + 12r12i + 14r14i;
1 =s25i + s30i + s40i;
si =25s25i + 30s30i + 40s40i;
ti = 1;
apdi > 100;
apdi < 300;
asi > 0;
asi < 3;
aTempOi > 5;
aTempOi < 25;
fpdi > 100;
fpdi < 300;
fsi > 0;
fsi < 1.25;
fTempOi > 5;
fTempOi < 25;
pi > 0;
ri > 6;
ri < 14;
ci > 1;
ci < 11;
si > 25;
si < 60;
ti > 1;
ti < 3;
fTempIi > 5;
fTempIi < 25;

/* aTempOo < 11.4; */
1 =r6o + r8o + r10o + r12o + r14o;
ro =6r6o + 8r8o + 10r10o + 12r12o + 14r14o;
1 =s25o + s30o + s40o;
so =25s25o + 30s30o + 40s40o;
to = 2;
apdo > 100;
apdo < 300;
aso > 0;
aso < 3;
aTempOo > 5;
aTempOo < 25;
fpdo > 100;
fpdo < 300;
fso > 0;
fso < 1.25;
fTempOo > 5;
fTempOo < 25;
po > 0;
ro > 6;
ro < 10;
co > 1;
co < 13;
so > 25;
so < 60;
to > 1;
to < 3;
fTempIo > 5;
fTempIo < 25;
int hi,li,si,ti,ci,ri,ami;
int ho,lo,so,to,co,ro,amo;
bin s25i,s30i,s40i,s50i,s60i,r6i,r8i,r10i,r12i,r14i;
bin s25o,s30o,s40o,s50o,s60o,r6o,r8o,r10o,r12o,r14o;
